Results/Experiment 1 Results/Existing Benchmark/RES_20/i-20-100-12.txt
solutions: 2 nodes: 5  modelTime: 112  solveTime: 14  totalTime: 129  modelSize: 7358  readTime: 3 matchingSize: 10
