Results/Experiment 2 Results/Existing Benchmark/i-20-100-12.lp
clingo version 5.4.0
Reading from tempSRTISolver.lp ...
Solving...
Answer: 1
matched(19,2) matched(17,3) matched(18,4) matched(11,5) matched(16,6) matched(20,7) matched(12,8) matched(14,9) matched(13,10) matched(5,11) matched(8,12) matched(10,13) matched(9,14) matched(1,15) matched(6,16) matched(3,17) matched(4,18) matched(2,19) matched(7,20) matched(15,1)
Optimization: 99
OPTIMUM FOUND

Models       : 1
  Optimum    : yes
Optimization : 99
Calls        : 1
Time         : 0.081s (Solving: 0.01s 1st Model: 0.00s Unsat: 0.01s)
CPU Time     : 0.080s
